life_2019/VRS_Z1split.mps
NAME network_DEA_VRS
OBJSENSE MAX
ROWS
 N  OBJ
 E  R0      
 L  R1      
 L  R2      
 L  R3      
 L  R4      
 L  R5      
 L  R6      
 L  R7      
 L  R8      
 L  R9      
 L  R10     
 L  R11     
 L  R12     
 L  R13     
 L  R14     
 L  R15     
 L  R16     
 L  R17     
 L  R18     
 L  R19     
 L  R20     
 L  R21     
 L  R22     
 L  R23     
 L  R24     
 L  R25     
 L  R26     
 L  R27     
 L  R28     
 L  R29     
 L  R30     
 L  R31     
 L  R32     
 L  R33     
 L  R34     
 L  R35     
 L  R36     
 L  R37     
 L  R38     
 L  R39     
 L  R40     
 L  R41     
 L  R42     
 L  R43     
 L  R44     
 L  R45     
 L  R46     
 L  R47     
 L  R48     
 L  R49     
 L  R50     
 L  R51     
 L  R52     
 L  R53     
 L  R54     
 L  R55     
 L  R56     
 L  R57     
 L  R58     
 L  R59     
 L  R60     
 L  R61     
 L  R62     
 L  R63     
 L  R64     
 L  R65     
 L  R66     
 L  R67     
 L  R68     
 L  R69     
 L  R70     
 L  R71     
 L  R72     
 L  R73     
 L  R74     
 L  R75     
 L  R76     
 L  R77     
 L  R78     
 L  R79     
 L  R80     
 L  R81     
 L  R82     
 L  R83     
 L  R84     
 L  R85     
 L  R86     
 L  R87     
 L  R88     
COLUMNS
    v_0       R0        2026949
    v_0       R1        -1555557
    v_0       R2        -1555557
    v_0       R5        -11671466
    v_0       R6        -11671466
    v_0       R9        -3004314
    v_0       R10       -3004314
    v_0       R13       -41414691
    v_0       R14       -41414691
    v_0       R17       -12140490
    v_0       R18       -12140490
    v_0       R21       -19122617
    v_0       R22       -19122617
    v_0       R25       -11887399
    v_0       R26       -11887399
    v_0       R29       -26822977
    v_0       R30       -26822977
    v_0       R33       -8539435
    v_0       R34       -8539435
    v_0       R37       -6599515
    v_0       R38       -6599515
    v_0       R41       -1691645
    v_0       R42       -1691645
    v_0       R45       -4761979
    v_0       R46       -4761979
    v_0       R49       -524825
    v_0       R50       -524825
    v_0       R53       -858192
    v_0       R54       -858192
    v_0       R57       -1597367
    v_0       R58       -1597367
    v_0       R61       -1175658
    v_0       R62       -1175658
    v_0       R65       -1046494
    v_0       R66       -1046494
    v_0       R69       -4108668
    v_0       R70       -4108668
    v_0       R73       -6200551
    v_0       R74       -6200551
    v_0       R77       -1652056
    v_0       R78       -1652056
    v_0       R81       -5548927
    v_0       R82       -5548927
    v_0       R85       -2026949
    v_0       R86       -2026949
    v_1       R0        1049737
    v_1       R1        -1164531
    v_1       R2        -582265.5
    v_1       R3        -582265.5
    v_1       R5        -6618387
    v_1       R6        -3309193.5
    v_1       R7        -3309193.5
    v_1       R9        -2935759
    v_1       R10       -1467879.5
    v_1       R11       -1467879.5
    v_1       R13       -31118540
    v_1       R14       -15559270
    v_1       R15       -15559270
    v_1       R17       -6279930
    v_1       R18       -3139965
    v_1       R19       -3139965
    v_1       R21       -23286829
    v_1       R22       -11643414.5
    v_1       R23       -11643414.5
    v_1       R25       -18140805
    v_1       R26       -9070402.5
    v_1       R27       -9070402.5
    v_1       R29       -20795292
    v_1       R30       -10397646
    v_1       R31       -10397646
    v_1       R33       -5389755
    v_1       R34       -2694877.5
    v_1       R35       -2694877.5
    v_1       R37       -2519131
    v_1       R38       -1259565.5
    v_1       R39       -1259565.5
    v_1       R41       -789390
    v_1       R42       -394695
    v_1       R43       -394695
    v_1       R45       -2608428
    v_1       R46       -1304214
    v_1       R47       -1304214
    v_1       R49       -3135653
    v_1       R50       -1567826.5
    v_1       R51       -1567826.5
    v_1       R53       -683817
    v_1       R54       -341908.5
    v_1       R55       -341908.5
    v_1       R57       -854679
    v_1       R58       -427339.5
    v_1       R59       -427339.5
    v_1       R61       -1906188
    v_1       R62       -953094
    v_1       R63       -953094
    v_1       R65       -2863447
    v_1       R66       -1431723.5
    v_1       R67       -1431723.5
    v_1       R69       -1642503
    v_1       R70       -821251.5
    v_1       R71       -821251.5
    v_1       R73       -4514682
    v_1       R74       -2257341
    v_1       R75       -2257341
    v_1       R77       -1823785
    v_1       R78       -911892.5
    v_1       R79       -911892.5
    v_1       R81       -1785162
    v_1       R82       -892581
    v_1       R83       -892581
    v_1       R85       -1049737
    v_1       R86       -524868.5
    v_1       R87       -524868.5
    u_0       OBJ       201539838
    u_0       R1        189191863
    u_0       R4        189191863
    u_0       R5        147635710
    u_0       R8        147635710
    u_0       R9        191663333
    u_0       R12       191663333
    u_0       R17       149080241
    u_0       R20       149080241
    u_0       R21       57558512
    u_0       R24       57558512
    u_0       R25       93079239
    u_0       R28       93079239
    u_0       R29       83651842
    u_0       R32       83651842
    u_0       R33       166764044
    u_0       R36       166764044
    u_0       R37       188993459
    u_0       R40       188993459
    u_0       R41       190660846
    u_0       R44       190660846
    u_0       R45       202015216
    u_0       R48       202015216
    u_0       R49       181045987
    u_0       R52       181045987
    u_0       R53       200856075
    u_0       R56       200856075
    u_0       R57       201439099
    u_0       R60       201439099
    u_0       R61       197922668
    u_0       R64       197922668
    u_0       R65       202181559
    u_0       R68       202181559
    u_0       R69       194300900
    u_0       R72       194300900
    u_0       R73       163373833
    u_0       R76       163373833
    u_0       R77       200461704
    u_0       R80       200461704
    u_0       R81       202615233
    u_0       R84       202615233
    u_0       R85       201539838
    u_0       R88       201539838
    u_1       OBJ       119753
    u_1       R1        9870835
    u_1       R4        9870835
    u_1       R5        67488199
    u_1       R8        67488199
    u_1       R9        11122885
    u_1       R12       11122885
    u_1       R13       239561876
    u_1       R16       239561876
    u_1       R17       67132407
    u_1       R20       67132407
    u_1       R21       182172752
    u_1       R24       182172752
    u_1       R25       115482764
    u_1       R28       115482764
    u_1       R29       145351162
    u_1       R32       145351162
    u_1       R33       40126558
    u_1       R36       40126558
    u_1       R37       15455056
    u_1       R40       15455056
    u_1       R41       10575954
    u_1       R44       10575954
    u_1       R45       2200967
    u_1       R48       2200967
    u_1       R49       17909096
    u_1       R52       17909096
    u_1       R53       980855
    u_1       R56       980855
    u_1       R57       1062931
    u_1       R60       1062931
    u_1       R61       3971538
    u_1       R64       3971538
    u_1       R65       391174
    u_1       R68       391174
    u_1       R69       7884620
    u_1       R72       7884620
    u_1       R73       40352173
    u_1       R76       40352173
    u_1       R77       1792051
    u_1       R80       1792051
    u_1       R81       482021
    u_1       R84       482021
    u_1       R85       119753
    u_1       R88       119753
    w_0       R2        135984
    w_0       R3        -135984
    w_0       R6        1459496
    w_0       R7        -1459496
    w_0       R10       297056
    w_0       R11       -297056
    w_0       R14       2051751
    w_0       R15       -2051751
    w_0       R18       1335913
    w_0       R19       -1335913
    w_0       R22       3205816
    w_0       R23       -3205816
    w_0       R26       1387377
    w_0       R27       -1387377
    w_0       R30       1782387
    w_0       R31       -1782387
    w_0       R34       1807764
    w_0       R35       -1807764
    w_0       R38       624620
    w_0       R39       -624620
    w_0       R42       292738
    w_0       R43       -292738
    w_0       R46       1519744
    w_0       R47       -1519744
    w_0       R54       58940
    w_0       R55       -58940
    w_0       R58       192442
    w_0       R59       -192442
    w_0       R62       495009
    w_0       R63       -495009
    w_0       R66       867450
    w_0       R67       -867450
    w_0       R70       883544
    w_0       R71       -883544
    w_0       R74       648753
    w_0       R75       -648753
    w_0       R78       605055
    w_0       R79       -605055
    w_0       R82       524582
    w_0       R83       -524582
    w_0       R86       1398552
    w_0       R87       -1398552
    w_1       R2        52114905
    w_1       R4        -52114905
    w_1       R6        208901057
    w_1       R8        -208901057
    w_1       R10       27262974
    w_1       R12       -27262974
    w_1       R14       595361187
    w_1       R16       -595361187
    w_1       R18       260515378
    w_1       R20       -260515378
    w_1       R22       383530483
    w_1       R24       -383530483
    w_1       R26       311938096
    w_1       R28       -311938096
    w_1       R30       553861428
    w_1       R32       -553861428
    w_1       R34       120769735
    w_1       R36       -120769735
    w_1       R38       81923503
    w_1       R40       -81923503
    w_1       R42       23433985
    w_1       R44       -23433985
    w_1       R46       17174819
    w_1       R48       -17174819
    w_1       R50       127794006
    w_1       R52       -127794006
    w_1       R54       13133989
    w_1       R56       -13133989
    w_1       R58       3627333
    w_1       R60       -3627333
    w_1       R62       14930024
    w_1       R64       -14930024
    w_1       R66       8733967
    w_1       R68       -8733967
    w_1       R70       49656775
    w_1       R72       -49656775
    w_1       R74       95516434
    w_1       R76       -95516434
    w_1       R78       9226125
    w_1       R80       -9226125
    w_1       R82       4617724
    w_1       R84       -4617724
    w_1       R86       1585243
    w_1       R88       -1585243
    w_2       R3        136040
    w_2       R4        -136040
    w_2       R7        1906928
    w_2       R8        -1906928
    w_2       R11       1197577
    w_2       R12       -1197577
    w_2       R15       8806523
    w_2       R16       -8806523
    w_2       R19       1325539
    w_2       R20       -1325539
    w_2       R23       4062369
    w_2       R24       -4062369
    w_2       R27       828036
    w_2       R28       -828036
    w_2       R31       3323857
    w_2       R32       -3323857
    w_2       R35       1480444
    w_2       R36       -1480444
    w_2       R39       96234
    w_2       R40       -96234
    w_2       R43       15783
    w_2       R44       -15783
    w_2       R47       6751471
    w_2       R48       -6751471
    w_2       R51       5435
    w_2       R52       -5435
    w_2       R55       271918
    w_2       R56       -271918
    w_2       R59       1073925
    w_2       R60       -1073925
    w_2       R63       590025
    w_2       R64       -590025
    w_2       R67       304574
    w_2       R68       -304574
    w_2       R71       133737
    w_2       R72       -133737
    w_2       R75       324304
    w_2       R76       -324304
    w_2       R79       58854
    w_2       R80       -58854
    w_2       R83       6219161
    w_2       R84       -6219161
    w_2       R87       3598624
    w_2       R88       -3598624
    w0_0      R2        -1
    w0_0      R3        1
    w0_0      R4        1
    w0_0      R6        -1
    w0_0      R7        1
    w0_0      R8        1
    w0_0      R10       -1
    w0_0      R11       1
    w0_0      R12       1
    w0_0      R14       -1
    w0_0      R15       1
    w0_0      R16       1
    w0_0      R18       -1
    w0_0      R19       1
    w0_0      R20       1
    w0_0      R22       -1
    w0_0      R23       1
    w0_0      R24       1
    w0_0      R26       -1
    w0_0      R27       1
    w0_0      R28       1
    w0_0      R30       -1
    w0_0      R31       1
    w0_0      R32       1
    w0_0      R34       -1
    w0_0      R35       1
    w0_0      R36       1
    w0_0      R38       -1
    w0_0      R39       1
    w0_0      R40       1
    w0_0      R42       -1
    w0_0      R43       1
    w0_0      R44       1
    w0_0      R46       -1
    w0_0      R47       1
    w0_0      R48       1
    w0_0      R50       -1
    w0_0      R51       1
    w0_0      R52       1
    w0_0      R54       -1
    w0_0      R55       1
    w0_0      R56       1
    w0_0      R58       -1
    w0_0      R59       1
    w0_0      R60       1
    w0_0      R62       -1
    w0_0      R63       1
    w0_0      R64       1
    w0_0      R66       -1
    w0_0      R67       1
    w0_0      R68       1
    w0_0      R70       -1
    w0_0      R71       1
    w0_0      R72       1
    w0_0      R74       -1
    w0_0      R75       1
    w0_0      R76       1
    w0_0      R78       -1
    w0_0      R79       1
    w0_0      R80       1
    w0_0      R82       -1
    w0_0      R83       1
    w0_0      R84       1
    w0_0      R86       -1
    w0_0      R87       1
    w0_0      R88       1
    w0_1      R3        -1
    w0_1      R4        1
    w0_1      R7        -1
    w0_1      R8        1
    w0_1      R11       -1
    w0_1      R12       1
    w0_1      R15       -1
    w0_1      R16       1
    w0_1      R19       -1
    w0_1      R20       1
    w0_1      R23       -1
    w0_1      R24       1
    w0_1      R27       -1
    w0_1      R28       1
    w0_1      R31       -1
    w0_1      R32       1
    w0_1      R35       -1
    w0_1      R36       1
    w0_1      R39       -1
    w0_1      R40       1
    w0_1      R43       -1
    w0_1      R44       1
    w0_1      R47       -1
    w0_1      R48       1
    w0_1      R51       -1
    w0_1      R52       1
    w0_1      R55       -1
    w0_1      R56       1
    w0_1      R59       -1
    w0_1      R60       1
    w0_1      R63       -1
    w0_1      R64       1
    w0_1      R67       -1
    w0_1      R68       1
    w0_1      R71       -1
    w0_1      R72       1
    w0_1      R75       -1
    w0_1      R76       1
    w0_1      R79       -1
    w0_1      R80       1
    w0_1      R83       -1
    w0_1      R84       1
    w0_1      R87       -1
    w0_1      R88       1
    u0_0      OBJ       -1
    u0_0      R1        -1
    u0_0      R4        -1
    u0_0      R5        -1
    u0_0      R8        -1
    u0_0      R9        -1
    u0_0      R12       -1
    u0_0      R13       -1
    u0_0      R16       -1
    u0_0      R17       -1
    u0_0      R20       -1
    u0_0      R21       -1
    u0_0      R24       -1
    u0_0      R25       -1
    u0_0      R28       -1
    u0_0      R29       -1
    u0_0      R32       -1
    u0_0      R33       -1
    u0_0      R36       -1
    u0_0      R37       -1
    u0_0      R40       -1
    u0_0      R41       -1
    u0_0      R44       -1
    u0_0      R45       -1
    u0_0      R48       -1
    u0_0      R49       -1
    u0_0      R52       -1
    u0_0      R53       -1
    u0_0      R56       -1
    u0_0      R57       -1
    u0_0      R60       -1
    u0_0      R61       -1
    u0_0      R64       -1
    u0_0      R65       -1
    u0_0      R68       -1
    u0_0      R69       -1
    u0_0      R72       -1
    u0_0      R73       -1
    u0_0      R76       -1
    u0_0      R77       -1
    u0_0      R80       -1
    u0_0      R81       -1
    u0_0      R84       -1
    u0_0      R85       -1
    u0_0      R88       -1
RHS
    RHS1      R0        1
BOUNDS
 LO BND1      v_0       1e-09
 LO BND1      v_1       1e-09
 LO BND1      u_0       1e-09
 LO BND1      u_1       1e-09
 LO BND1      w_0       1e-09
 LO BND1      w_1       1e-09
 LO BND1      w_2       1e-09
 LO BND1      w0_0      1e-09
 LO BND1      w0_1      1e-09
 LO BND1      u0_0      1e-09
ENDATA
