整理用/life_2019/VRS_Z1split.lp
\ Model network_DEA_VRS
\ LP format - for model browsing. Use MPS format to capture full model detail.
Maximize
  2.01539838e+08 u_0 + 119753 u_1 - u0_0
Subject To
 R0: 2.026949e+06 v_0 + 1.049737e+06 v_1 = 1
 R1: - 1.555557e+06 v_0 - 1.164531e+06 v_1 + 1.89191863e+08 u_0
   + 9.870835e+06 u_1 - u0_0 <= 0
 R2: - 1.555557e+06 v_0 - 582265.5 v_1 + 135984 w_0 + 5.2114905e+07 w_1
   - w0_0 <= 0
 R3: - 582265.5 v_1 - 135984 w_0 + 136040 w_2 + w0_0 - w0_1 <= 0
 R4: 1.89191863e+08 u_0 + 9.870835e+06 u_1 - 5.2114905e+07 w_1 - 136040 w_2
   + w0_0 + w0_1 - u0_0 <= 0
 R5: - 1.1671466e+07 v_0 - 6.618387e+06 v_1 + 1.4763571e+08 u_0
   + 6.7488199e+07 u_1 - u0_0 <= 0
 R6: - 1.1671466e+07 v_0 - 3.3091935e+06 v_1 + 1.459496e+06 w_0
   + 2.08901057e+08 w_1 - w0_0 <= 0
 R7: - 3.3091935e+06 v_1 - 1.459496e+06 w_0 + 1.906928e+06 w_2 + w0_0
   - w0_1 <= 0
 R8: 1.4763571e+08 u_0 + 6.7488199e+07 u_1 - 2.08901057e+08 w_1
   - 1.906928e+06 w_2 + w0_0 + w0_1 - u0_0 <= 0
 R9: - 3.004314e+06 v_0 - 2.935759e+06 v_1 + 1.91663333e+08 u_0
   + 1.1122885e+07 u_1 - u0_0 <= 0
 R10: - 3.004314e+06 v_0 - 1.4678795e+06 v_1 + 297056 w_0
   + 2.7262974e+07 w_1 - w0_0 <= 0
 R11: - 1.4678795e+06 v_1 - 297056 w_0 + 1.197577e+06 w_2 + w0_0 - w0_1
   <= 0
 R12: 1.91663333e+08 u_0 + 1.1122885e+07 u_1 - 2.7262974e+07 w_1
   - 1.197577e+06 w_2 + w0_0 + w0_1 - u0_0 <= 0
 R13: - 4.1414691e+07 v_0 - 3.111854e+07 v_1 + 2.39561876e+08 u_1 - u0_0
   <= 0
 R14: - 4.1414691e+07 v_0 - 1.555927e+07 v_1 + 2.051751e+06 w_0
   + 5.95361187e+08 w_1 - w0_0 <= 0
 R15: - 1.555927e+07 v_1 - 2.051751e+06 w_0 + 8.806523e+06 w_2 + w0_0
   - w0_1 <= 0
 R16: 2.39561876e+08 u_1 - 5.95361187e+08 w_1 - 8.806523e+06 w_2 + w0_0
   + w0_1 - u0_0 <= 0
 R17: - 1.214049e+07 v_0 - 6.27993e+06 v_1 + 1.49080241e+08 u_0
   + 6.7132407e+07 u_1 - u0_0 <= 0
 R18: - 1.214049e+07 v_0 - 3.139965e+06 v_1 + 1.335913e+06 w_0
   + 2.60515378e+08 w_1 - w0_0 <= 0
 R19: - 3.139965e+06 v_1 - 1.335913e+06 w_0 + 1.325539e+06 w_2 + w0_0
   - w0_1 <= 0
 R20: 1.49080241e+08 u_0 + 6.7132407e+07 u_1 - 2.60515378e+08 w_1
   - 1.325539e+06 w_2 + w0_0 + w0_1 - u0_0 <= 0
 R21: - 1.9122617e+07 v_0 - 2.3286829e+07 v_1 + 5.7558512e+07 u_0
   + 1.82172752e+08 u_1 - u0_0 <= 0
 R22: - 1.9122617e+07 v_0 - 1.16434145e+07 v_1 + 3.205816e+06 w_0
   + 3.83530483e+08 w_1 - w0_0 <= 0
 R23: - 1.16434145e+07 v_1 - 3.205816e+06 w_0 + 4.062369e+06 w_2 + w0_0
   - w0_1 <= 0
 R24: 5.7558512e+07 u_0 + 1.82172752e+08 u_1 - 3.83530483e+08 w_1
   - 4.062369e+06 w_2 + w0_0 + w0_1 - u0_0 <= 0
 R25: - 1.1887399e+07 v_0 - 1.8140805e+07 v_1 + 9.3079239e+07 u_0
   + 1.15482764e+08 u_1 - u0_0 <= 0
 R26: - 1.1887399e+07 v_0 - 9.0704025e+06 v_1 + 1.387377e+06 w_0
   + 3.11938096e+08 w_1 - w0_0 <= 0
 R27: - 9.0704025e+06 v_1 - 1.387377e+06 w_0 + 828036 w_2 + w0_0 - w0_1
   <= 0
 R28: 9.3079239e+07 u_0 + 1.15482764e+08 u_1 - 3.11938096e+08 w_1
   - 828036 w_2 + w0_0 + w0_1 - u0_0 <= 0
 R29: - 2.6822977e+07 v_0 - 2.0795292e+07 v_1 + 8.3651842e+07 u_0
   + 1.45351162e+08 u_1 - u0_0 <= 0
 R30: - 2.6822977e+07 v_0 - 1.0397646e+07 v_1 + 1.782387e+06 w_0
   + 5.53861428e+08 w_1 - w0_0 <= 0
 R31: - 1.0397646e+07 v_1 - 1.782387e+06 w_0 + 3.323857e+06 w_2 + w0_0
   - w0_1 <= 0
 R32: 8.3651842e+07 u_0 + 1.45351162e+08 u_1 - 5.53861428e+08 w_1
   - 3.323857e+06 w_2 + w0_0 + w0_1 - u0_0 <= 0
 R33: - 8.539435e+06 v_0 - 5.389755e+06 v_1 + 1.66764044e+08 u_0
   + 4.0126558e+07 u_1 - u0_0 <= 0
 R34: - 8.539435e+06 v_0 - 2.6948775e+06 v_1 + 1.807764e+06 w_0
   + 1.20769735e+08 w_1 - w0_0 <= 0
 R35: - 2.6948775e+06 v_1 - 1.807764e+06 w_0 + 1.480444e+06 w_2 + w0_0
   - w0_1 <= 0
 R36: 1.66764044e+08 u_0 + 4.0126558e+07 u_1 - 1.20769735e+08 w_1
   - 1.480444e+06 w_2 + w0_0 + w0_1 - u0_0 <= 0
 R37: - 6.599515e+06 v_0 - 2.519131e+06 v_1 + 1.88993459e+08 u_0
   + 1.5455056e+07 u_1 - u0_0 <= 0
 R38: - 6.599515e+06 v_0 - 1.2595655e+06 v_1 + 624620 w_0
   + 8.1923503e+07 w_1 - w0_0 <= 0
 R39: - 1.2595655e+06 v_1 - 624620 w_0 + 96234 w_2 + w0_0 - w0_1 <= 0
 R40: 1.88993459e+08 u_0 + 1.5455056e+07 u_1 - 8.1923503e+07 w_1
   - 96234 w_2 + w0_0 + w0_1 - u0_0 <= 0
 R41: - 1.691645e+06 v_0 - 789390 v_1 + 1.90660846e+08 u_0
   + 1.0575954e+07 u_1 - u0_0 <= 0
 R42: - 1.691645e+06 v_0 - 394695 v_1 + 292738 w_0 + 2.3433985e+07 w_1
   - w0_0 <= 0
 R43: - 394695 v_1 - 292738 w_0 + 15783 w_2 + w0_0 - w0_1 <= 0
 R44: 1.90660846e+08 u_0 + 1.0575954e+07 u_1 - 2.3433985e+07 w_1
   - 15783 w_2 + w0_0 + w0_1 - u0_0 <= 0
 R45: - 4.761979e+06 v_0 - 2.608428e+06 v_1 + 2.02015216e+08 u_0
   + 2.200967e+06 u_1 - u0_0 <= 0
 R46: - 4.761979e+06 v_0 - 1.304214e+06 v_1 + 1.519744e+06 w_0
   + 1.7174819e+07 w_1 - w0_0 <= 0
 R47: - 1.304214e+06 v_1 - 1.519744e+06 w_0 + 6.751471e+06 w_2 + w0_0
   - w0_1 <= 0
 R48: 2.02015216e+08 u_0 + 2.200967e+06 u_1 - 1.7174819e+07 w_1
   - 6.751471e+06 w_2 + w0_0 + w0_1 - u0_0 <= 0
 R49: - 524825 v_0 - 3.135653e+06 v_1 + 1.81045987e+08 u_0
   + 1.7909096e+07 u_1 - u0_0 <= 0
 R50: - 524825 v_0 - 1.5678265e+06 v_1 + 1.27794006e+08 w_1 - w0_0 <= 0
 R51: - 1.5678265e+06 v_1 + 5435 w_2 + w0_0 - w0_1 <= 0
 R52: 1.81045987e+08 u_0 + 1.7909096e+07 u_1 - 1.27794006e+08 w_1
   - 5435 w_2 + w0_0 + w0_1 - u0_0 <= 0
 R53: - 858192 v_0 - 683817 v_1 + 2.00856075e+08 u_0 + 980855 u_1 - u0_0
   <= 0
 R54: - 858192 v_0 - 341908.5 v_1 + 58940 w_0 + 1.3133989e+07 w_1 - w0_0
   <= 0
 R55: - 341908.5 v_1 - 58940 w_0 + 271918 w_2 + w0_0 - w0_1 <= 0
 R56: 2.00856075e+08 u_0 + 980855 u_1 - 1.3133989e+07 w_1 - 271918 w_2
   + w0_0 + w0_1 - u0_0 <= 0
 R57: - 1.597367e+06 v_0 - 854679 v_1 + 2.01439099e+08 u_0
   + 1.062931e+06 u_1 - u0_0 <= 0
 R58: - 1.597367e+06 v_0 - 427339.5 v_1 + 192442 w_0 + 3.627333e+06 w_1
   - w0_0 <= 0
 R59: - 427339.5 v_1 - 192442 w_0 + 1.073925e+06 w_2 + w0_0 - w0_1 <= 0
 R60: 2.01439099e+08 u_0 + 1.062931e+06 u_1 - 3.627333e+06 w_1
   - 1.073925e+06 w_2 + w0_0 + w0_1 - u0_0 <= 0
 R61: - 1.175658e+06 v_0 - 1.906188e+06 v_1 + 1.97922668e+08 u_0
   + 3.971538e+06 u_1 - u0_0 <= 0
 R62: - 1.175658e+06 v_0 - 953094 v_1 + 495009 w_0 + 1.4930024e+07 w_1
   - w0_0 <= 0
 R63: - 953094 v_1 - 495009 w_0 + 590025 w_2 + w0_0 - w0_1 <= 0
 R64: 1.97922668e+08 u_0 + 3.971538e+06 u_1 - 1.4930024e+07 w_1
   - 590025 w_2 + w0_0 + w0_1 - u0_0 <= 0
 R65: - 1.046494e+06 v_0 - 2.863447e+06 v_1 + 2.02181559e+08 u_0
   + 391174 u_1 - u0_0 <= 0
 R66: - 1.046494e+06 v_0 - 1.4317235e+06 v_1 + 867450 w_0
   + 8.733967e+06 w_1 - w0_0 <= 0
 R67: - 1.4317235e+06 v_1 - 867450 w_0 + 304574 w_2 + w0_0 - w0_1 <= 0
 R68: 2.02181559e+08 u_0 + 391174 u_1 - 8.733967e+06 w_1 - 304574 w_2
   + w0_0 + w0_1 - u0_0 <= 0
 R69: - 4.108668e+06 v_0 - 1.642503e+06 v_1 + 1.943009e+08 u_0
   + 7.88462e+06 u_1 - u0_0 <= 0
 R70: - 4.108668e+06 v_0 - 821251.5 v_1 + 883544 w_0 + 4.9656775e+07 w_1
   - w0_0 <= 0
 R71: - 821251.5 v_1 - 883544 w_0 + 133737 w_2 + w0_0 - w0_1 <= 0
 R72: 1.943009e+08 u_0 + 7.88462e+06 u_1 - 4.9656775e+07 w_1 - 133737 w_2
   + w0_0 + w0_1 - u0_0 <= 0
 R73: - 6.200551e+06 v_0 - 4.514682e+06 v_1 + 1.63373833e+08 u_0
   + 4.0352173e+07 u_1 - u0_0 <= 0
 R74: - 6.200551e+06 v_0 - 2.257341e+06 v_1 + 648753 w_0
   + 9.5516434e+07 w_1 - w0_0 <= 0
 R75: - 2.257341e+06 v_1 - 648753 w_0 + 324304 w_2 + w0_0 - w0_1 <= 0
 R76: 1.63373833e+08 u_0 + 4.0352173e+07 u_1 - 9.5516434e+07 w_1
   - 324304 w_2 + w0_0 + w0_1 - u0_0 <= 0
 R77: - 1.652056e+06 v_0 - 1.823785e+06 v_1 + 2.00461704e+08 u_0
   + 1.792051e+06 u_1 - u0_0 <= 0
 R78: - 1.652056e+06 v_0 - 911892.5 v_1 + 605055 w_0 + 9.226125e+06 w_1
   - w0_0 <= 0
 R79: - 911892.5 v_1 - 605055 w_0 + 58854 w_2 + w0_0 - w0_1 <= 0
 R80: 2.00461704e+08 u_0 + 1.792051e+06 u_1 - 9.226125e+06 w_1 - 58854 w_2
   + w0_0 + w0_1 - u0_0 <= 0
 R81: - 5.548927e+06 v_0 - 1.785162e+06 v_1 + 2.02615233e+08 u_0
   + 482021 u_1 - u0_0 <= 0
 R82: - 5.548927e+06 v_0 - 892581 v_1 + 524582 w_0 + 4.617724e+06 w_1
   - w0_0 <= 0
 R83: - 892581 v_1 - 524582 w_0 + 6.219161e+06 w_2 + w0_0 - w0_1 <= 0
 R84: 2.02615233e+08 u_0 + 482021 u_1 - 4.617724e+06 w_1 - 6.219161e+06 w_2
   + w0_0 + w0_1 - u0_0 <= 0
 R85: - 2.026949e+06 v_0 - 1.049737e+06 v_1 + 2.01539838e+08 u_0
   + 119753 u_1 - u0_0 <= 0
 R86: - 2.026949e+06 v_0 - 524868.5 v_1 + 1.398552e+06 w_0
   + 1.585243e+06 w_1 - w0_0 <= 0
 R87: - 524868.5 v_1 - 1.398552e+06 w_0 + 3.598624e+06 w_2 + w0_0 - w0_1
   <= 0
 R88: 2.01539838e+08 u_0 + 119753 u_1 - 1.585243e+06 w_1 - 3.598624e+06 w_2
   + w0_0 + w0_1 - u0_0 <= 0
Bounds
 v_0 >= 1e-09
 v_1 >= 1e-09
 u_0 >= 1e-09
 u_1 >= 1e-09
 w_0 >= 1e-09
 w_1 >= 1e-09
 w_2 >= 1e-09
 w0_0 >= 1e-09
 w0_1 >= 1e-09
 u0_0 >= 1e-09
End
